Version identifier: 22.1.0.0 | 2022-03-09 | 1a383f8ce
CPXPARAM_Threads                                 1
CPXPARAM_MIP_Strategy_VariableSelect             3
CPXPARAM_TimeLimit                               599.99270597300006
Tried aggregator 1 time.
MIP Presolve eliminated 327 rows and 1555 columns.
Reduced MIP has 1862 rows, 2177 columns, and 17009 nonzeros.
Reduced MIP has 2177 binaries, 0 generals, 0 SOSs, and 0 indicators.
Presolve time = 0.02 sec. (10.39 ticks)
Probing time = 0.00 sec. (3.27 ticks)
Tried aggregator 1 time.
Detecting symmetries...
Reduced MIP has 1862 rows, 2177 columns, and 17009 nonzeros.
Reduced MIP has 2177 binaries, 0 generals, 0 SOSs, and 0 indicators.
Presolve time = 0.01 sec. (10.67 ticks)
Probing time = 0.00 sec. (3.27 ticks)
Clique table members: 1239.
MIP emphasis: balance optimality and feasibility.
MIP search method: dynamic search.
Parallel mode: none, using 1 thread.
Root relaxation solution time = 0.02 sec. (14.58 ticks)

        Nodes                                         Cuts/
   Node  Left     Objective  IInf  Best Integer    Best Bound    ItCnt     Gap

      0     0    infeasible                                        404         

Root node processing (before b&c):
  Real time             =    0.13 sec. (86.13 ticks)
Sequential b&c:
  Real time             =    0.00 sec. (0.00 ticks)
                          ------------
Total (root+branch&cut) =    0.13 sec. (86.13 ticks)
Primal:	310
Dual:	310
Status:	Optimal
Time:	0.171567
Sequence:
	0
